200
150
100
99
99
99
99
99
99
98
98
98
96
96
96
95
95
95
95
95
95
95
95
94
94
92
92
92
92
92
92
92
92
92
91
89
89
87
87
86
86
86
85
85
85
84
84
84
83
83
83
82
82
81
81
81
81
79
79
79
79
77
76
75
75
74
74
73
72
70
69
69
69
69
69
69
69
69
68
67
67
64
64
64
64
64
64
63
63
63
63
63
62
62
62
62
61
59
58
58
57
57
56
55
55
54
54
52
52
52
52
52
51
51
50
50
50
48
47
46
46
45
45
45
45
45
45
45
44
44
44
44
43
42
42
41
41
41
41
41
41
40
40
39
39
38
38
38
37
37
36
36
36
35
35
35
35
35
35
35
35
34
34
34
34
33
33
32
31
31
31
31
31
30
30
30
29
29
28
28
28
28
28
27
26
26
26
26
25
24
24
23
23
23
22
22
22
22
21
21
20
20
